CMD:
./solvers/bin/cadical --plain --no-reduce -t 1600 ./data/cnfs//oski15a14b03s/oski15a14b03s.26.cnf

c --- [ banner ] -------------------------------------------------------------
c 
c CaDiCaL SAT Solver
c Copyright (c) 2016-2024
c A. Biere, M. Fleury, N. Froleyks, K. Fazekas, F. Pollitt, T. Faller
c JKU Linz, University of Freiburg, TU Wien
c 
c Version 2.1.3 5296d3d2a9bf48c154ab2acb5e44625776d821bf
c g++ (Gentoo 12.3.1_p20230526 p2) 12.3.1 20230526 -Wall -Wextra -O3 -DNDEBUG
c Sat Aug 9 07:26:21 PDT 2025 Linux cedar2.int.cedar.computecanada.ca 5.14.0-362.24.2.el9_3.x86_64 x86_64
c 
c --- [ limit ] --------------------------------------------------------------
c 
c setting time limit to 1600 seconds real time (due to '-t 1600')
c 
c --- [ parsing input ] ------------------------------------------------------
c 
c reading DIMACS file from './data/cnfs//oski15a14b03s/oski15a14b03s.26.cnf'
c opening file to read './data/cnfs//oski15a14b03s/oski15a14b03s.26.cnf'
c found 'p cnf 1187861 3469833' header
c parsed 3469833 clauses in 0.55 seconds process time
c 
c --- [ options ] ------------------------------------------------------------
c 
c   --compact=false                (different from default 'true')
c   --decompose=false              (different from default 'true')
c   --deduplicate=false            (different from default 'true')
c   --elim=false                   (different from default 'true')
c   --probe=false                  (different from default 'true')
c   --reduce=false                 (different from default 'true')
c   --subsume=false                (different from default 'true')
c   --ternary=false                (different from default 'true')
c   --transred=false               (different from default 'true')
c   --vivify=false                 (different from default 'true')
c 
c --- [ solving ] ------------------------------------------------------------
c 
c time measured in process time since initialization
c 
c  seconds   reductions  redundant   irredundant
c          MB    restarts       trail         variables
c           level   conflicts       glue            remaining
c 
c *  0.55 526  0 0   0    0    0  0% 0 3256185 1026485 86%
c {  0.77 538  0 0   0    0    0  0% 0 3256185 1026485 86%
c }  1.79 538 1237 0  97 1001  945 22% 4 3256185 1026485 86%
c [  1.79 538  0 0  97 1001  945  0% 0 3256185 1026485 86%
c O  2.01 538 3521 0  97 1002  946 97% 2 3256185 1026485 86%
c ]  2.21 538 3223 0  97 2101 1523 84% 14 3256185 1026485 86%
c 1  2.21 538 3223 0  97 2101 1523 84% 14 3256185 1026485 86%
c 
c --- [ result ] -------------------------------------------------------------
c 
s SATISFIABLE
v 1 -2 -3 -4 5 6 7 8 9 10 11 12 13 14 15 16 17 18 19 20 21 22 23 24 25 26 27
v 28 29 30 31 32 33 34 35 36 37 38 39 40 41 42 43 44 45 46 47 48 49 50 51 52
v 53 54 55 56 57 58 59 60 61 62 63 64 65 66 67 68 69 70 71 72 73 74 75 76 77
v 78 79 80 81 82 83 84 85 86 87 88 89 90 91 92 93 94 95 96 97 98 99 100 101
v 102 103 104 105 106 107 108 109 110 111 112 113 114 115 116 117 118 119 120
v 121 122 123 124 125 126 127 128 129 130 131 132 133 134 135 136 137 138 139
v 140 141 142 143 144 145 146 147 148 149 150 151 152 153 154 155 156 157 158
v 159 160 161 162 163 164 165 166 167 168 169 170 171 172 173 174 175 176 177
v 178 179 180 181 182 183 184 185 186 187 188 189 190 191 192 193 194 195 196
v 197 198 199 200 201 202 203 204 205 206 207 208 209 210 211 212 213 214 215
v 216 217 218 219 220 221 222 223 224 225 226 227 228 229 230 231 232 233 234
v 235 236 237 238 239 240 241 242 243 244 -245 246 247 248 249 250 251 252 253
v 254 255 256 257 258 259 260 261 262 263 264 265 266 267 268 269 270 271 272
v 273 274 275 276 277 278 279 280 281 282 283 284 285 286 287 288 289 290 291
v 292 293 294 295 296 297 298 299 300 301 302 303 304 305 306 307 308 309 310
v 311 312 313 314 315 316 317 318 319 320 321 322 323 324 325 326 327 328 329
v 330 331 332 333 334 335 336 337 338 339 340 341 342 343 344 345 346 347 348
v 349 350 351 352 353 354 355 356 357 358 359 360 361 362 363 364 365 366 367
v 368 369 370 371 372 373 374 375 376 377 378 379 380 381 382 383 384 385 386
v 387 388 389 390 391 392 393 394 395 396 397 398 399 400 401 402 403 404 405
v 406 407 408 409 410 411 412 413 414 415 416 417 418 419 420 421 422 423 424
v 425 426 427 428 429 430 431 432 433 434 435 436 437 438 439 440 441 442 443
v 444 445 446 447 448 449 450 451 452 453 454 455 456 457 458 459 460 461 462
v 463 464 465 466 467 468 469 470 471 472 473 474 475 476 477 478 479 480 481
v 482 483 484 485 486 487 488 489 490 491 492 493 494 495 496 497 498 499 500
v 501 502 503 504 505 506 507 508 509 510 511 512 513 514 515 516 517 518 519
v 520 521 522 523 524 525 526 527 528 529 530 531 532 533 534 535 536 537 538
v 539 540 541 542 543 544 545 546 547 548 549 550 551 552 553 554 555 556 557
v 558 559 560 561 562 563 564 565 566 567 568 569 570 571 572 573 574 575 576
v 577 578 579 580 581 582 583 584 585 586 587 588 589 590 591 592 593 594 595
v 596 597 598 599 600 601 602 603 604 605 606 607 608 609 610 611 612 613 614
v 615 616 617 618 619 620 621 622 623 624 625 626 627 628 629 630 631 632 633
v 634 635 636 637 638 639 640 641 642 643 644 645 646 647 648 649 650 651 652
v 653 654 655 656 657 658 659 660 661 662 663 664 665 666 667 668 669 670 671
v 672 673 674 675 676 677 678 679 680 681 682 683 684 685 686 687 688 689 690
v 691 692 693 694 695 696 697 698 699 700 701 702 703 704 705 706 707 708 709
v 710 711 712 713 714 715 716 717 718 719 720 721 722 723 724 725 726 727 728
v 729 730 731 732 733 734 735 736 737 738 739 740 741 742 743 744 745 746 747
v 748 749 750 751 752 753 754 755 756 757 758 759 760 761 762 763 764 765 766
v 767 768 769 770 771 772 773 774 775 776 777 778 779 780 781 782 783 784 785
v 786 787 788 789 790 791 792 793 794 795 796 797 798 799 800 801 802 803 804
v 805 806 807 808 809 810 811 812 813 814 815 816 817 818 819 820 821 822 823
v 824 825 826 827 828 829 830 831 832 833 834 835 836 837 838 839 840 841 842
... skipped 123797 lines ...
v 1187402 1187403 -1187404 -1187405 1187406 1187407 -1187408 -1187409 -1187410
v -1187411 -1187412 -1187413 1187414 1187415 -1187416 -1187417 1187418 1187419
v -1187420 -1187421 -1187422 -1187423 -1187424 1187425 1187426 -1187427
v -1187428 1187429 1187430 -1187431 -1187432 -1187433 1187434 1187435 -1187436
v -1187437 1187438 1187439 -1187440 -1187441 -1187442 1187443 1187444 -1187445
v -1187446 1187447 1187448 -1187449 -1187450 -1187451 1187452 1187453 -1187454
v -1187455 1187456 1187457 -1187458 -1187459 -1187460 1187461 1187462 -1187463
v -1187464 1187465 1187466 -1187467 -1187468 -1187469 1187470 1187471 -1187472
v -1187473 1187474 1187475 -1187476 -1187477 -1187478 1187479 1187480 -1187481
v -1187482 1187483 1187484 -1187485 -1187486 -1187487 1187488 1187489 -1187490
v -1187491 1187492 1187493 -1187494 -1187495 -1187496 1187497 1187498 -1187499
v -1187500 1187501 1187502 -1187503 -1187504 -1187505 1187506 1187507 -1187508
v -1187509 1187510 1187511 -1187512 -1187513 -1187514 1187515 1187516 -1187517
v -1187518 1187519 1187520 -1187521 -1187522 -1187523 1187524 1187525 -1187526
v -1187527 1187528 1187529 -1187530 -1187531 -1187532 1187533 1187534 -1187535
v -1187536 1187537 1187538 -1187539 -1187540 -1187541 1187542 1187543 -1187544
v -1187545 1187546 1187547 -1187548 -1187549 -1187550 1187551 1187552 -1187553
v -1187554 1187555 1187556 -1187557 -1187558 -1187559 1187560 1187561 -1187562
v -1187563 1187564 1187565 -1187566 -1187567 -1187568 1187569 1187570 -1187571
v -1187572 1187573 1187574 -1187575 -1187576 -1187577 1187578 1187579 -1187580
v -1187581 1187582 1187583 -1187584 -1187585 -1187586 1187587 1187588 -1187589
v -1187590 1187591 1187592 -1187593 -1187594 -1187595 1187596 1187597 -1187598
v -1187599 1187600 1187601 -1187602 -1187603 -1187604 1187605 1187606 -1187607
v -1187608 1187609 1187610 -1187611 -1187612 -1187613 1187614 1187615 -1187616
v -1187617 1187618 1187619 -1187620 -1187621 -1187622 1187623 1187624 -1187625
v -1187626 1187627 1187628 -1187629 -1187630 -1187631 1187632 1187633 -1187634
v -1187635 1187636 1187637 -1187638 -1187639 -1187640 1187641 1187642 -1187643
v -1187644 1187645 1187646 -1187647 -1187648 -1187649 1187650 1187651 -1187652
v -1187653 1187654 1187655 -1187656 -1187657 -1187658 1187659 1187660 -1187661
v -1187662 1187663 1187664 -1187665 -1187666 -1187667 1187668 1187669 -1187670
v -1187671 1187672 1187673 -1187674 -1187675 -1187676 1187677 1187678 -1187679
v -1187680 1187681 1187682 -1187683 -1187684 -1187685 1187686 1187687 -1187688
v -1187689 1187690 1187691 -1187692 -1187693 -1187694 1187695 1187696 -1187697
v -1187698 1187699 1187700 -1187701 -1187702 -1187703 1187704 1187705 -1187706
v -1187707 1187708 1187709 -1187710 -1187711 -1187712 1187713 1187714 -1187715
v -1187716 1187717 1187718 -1187719 -1187720 -1187721 1187722 1187723 -1187724
v -1187725 1187726 1187727 -1187728 -1187729 -1187730 1187731 1187732 -1187733
v -1187734 1187735 1187736 -1187737 -1187738 -1187739 1187740 1187741 -1187742
v -1187743 1187744 1187745 -1187746 -1187747 -1187748 1187749 1187750 -1187751
v -1187752 1187753 1187754 -1187755 -1187756 -1187757 1187758 1187759 -1187760
v -1187761 1187762 1187763 -1187764 -1187765 -1187766 1187767 1187768 -1187769
v -1187770 1187771 1187772 -1187773 -1187774 -1187775 1187776 1187777 -1187778
v -1187779 1187780 1187781 -1187782 -1187783 -1187784 1187785 1187786 -1187787
v -1187788 1187789 1187790 -1187791 -1187792 -1187793 1187794 1187795 -1187796
v -1187797 1187798 1187799 -1187800 -1187801 -1187802 1187803 1187804 -1187805
v -1187806 1187807 1187808 -1187809 -1187810 -1187811 1187812 1187813 -1187814
v -1187815 1187816 1187817 -1187818 -1187819 -1187820 1187821 1187822 -1187823
v -1187824 1187825 1187826 -1187827 -1187828 -1187829 1187830 1187831 -1187832
v -1187833 1187834 1187835 -1187836 -1187837 -1187838 1187839 1187840 -1187841
v -1187842 1187843 1187844 -1187845 -1187846 -1187847 -1187848 1187849
v -1187850 -1187851 1187852 1187853 -1187854 -1187855 1187856 -1187857
v -1187858 1187859 1187860 -1187861 0
c 
c --- [ run-time profiling ] -------------------------------------------------
c 
c process time taken by individual solving procedures
c (percentage relative to process time for solving)
c 
c         1.66   99.99% search
c         1.02   61.31% unstable
c         0.55   33.03% parse
c         0.43   25.68% stable
c         0.22   12.99% lucky
c         0.00    0.00% simplify
c   =================================
c         1.66   73.46% solve
c 
c last line shows process time for solving
c (percentage relative to total process time)
c 
c --- [ statistics ] ---------------------------------------------------------
c 
c chronological:              1058        50.36 %  of conflicts
c conflicts:                  2101      1263.31    per second
c decisions:                132878     79898.07    per second
c fixed:                    161376        13.59 %  of all variables
c learned:                    1560        74.25 %  per conflict
c learned_lits:              78993       100.00 %  learned literals
c minimized:                     0         0.00 %  learned literals
c shrunken:                   6390         8.09 %  learned literals
c minishrunken:               3656         4.63 %  learned literals
c otfs:                          4         0.19 %  of conflict
c propagations:           13629103         8.20 M  per second
c rephased:                      1      2101.00    interval
c restarts:                     97        21.66    interval
c stabilizing:                   1        52.36 %  of conflicts
c subsumed:                     37         0.00 %  of all clauses
c strengthened:                  4         0.00 %  of all clauses
c 
c seconds are measured in process time for solving
c 
c --- [ resources ] ----------------------------------------------------------
c 
c total process time since initialization:         2.26    seconds
c total real time since initialization:            2.28    seconds
c maximum resident set size of process:          537.03    MB
c 
c --- [ shutting down ] ------------------------------------------------------
c 
c exit 10
